set MONTHS := 1 2 3 4 5;

param salaryExp := 2000;
param salaryTrainee := 1000;
param hoursExp := 160;
param hoursTrainee := 50;
param startingExp := 50;
param quitRate := 0.05;

param hoursReq :=
1 6000
2 7000
3 8000
4 9500
5 11000;